10J3M/DAT/10J3MUNL-4.dat
10 3
35.6661 35.6661
45.9865 45.9865
17.5949 17.5949
8.5429 8.5429
5.6111 5.6111
34.1302 34.1302
38.6362 38.6362
39.5992 39.5992
2.7234 2.7234
4.8651 4.8651
233.3556