10J3M/SOL/10J3MUNL-4.sol
solution status: optimal solution found
objective value:                     57.4163333333333
x#1#2                                               1 	(obj:0)
x#2#1                               0.256091485167653 	(obj:0)
x#2#2                               0.743908514832347 	(obj:0)
x#3#1                                               1 	(obj:0)
x#4#2                                               1 	(obj:0)
x#5#1                                               1 	(obj:0)
x#6#3                                               1 	(obj:0)
x#7#1                                               1 	(obj:0)
x#8#1                                               1 	(obj:0)
x#9#2                               0.742264060944216 	(obj:0)
x#9#3                               0.257735939055784 	(obj:0)
x#10#1                                              1 	(obj:0)
z                                    57.4163333333333 	(obj:1)
